80
21
0 21 26 28 30 32 34 36 37 38 40 41 42 47 48 49 50 51 52 53 54 55 59 61 62 63 65 66 67 68 69 70 73 74 76 77 79
1 21 27 31 33 35 36 37 39 40 41 42 47 49 50 53 54 55 58 60 62 66 67 68 70 73 76 77 78 79
2 21 23 26 27 28 29 30 32 35 36 40 41 42 45 48 49 50 53 54 55 56 59 60 61 62 63 69 70 73 76 77
3 21 23 26 28 29 30 32 34 35 36 38 39 40 41 42 43 45 50 52 53 55 56 59 62 65 67 68 70 73 75 77 79
4 21 23 28 29 32 34 35 37 38 40 41 42 43 46 48 49 50 52 53 54 55 56 59 60 64 65 66 67 70 72 76 77
5 21 23 27 28 29 30 32 34 36 37 38 39 42 43 50 54 56 61 67 73 74 76 77 78 79
6 21 29 31 32 35 36 40 41 42 43 44 46 51 53 55 56 59 62 63 66 68 69 70 72 73 74 76 78 79
7 21 23 28 29 30 31 32 36 37 39 42 43 45 49 53 55 56 57 59 61 62 63 66 69 70 73 74 76
8 21 23 24 26 28 32 35 37 40 41 44 49 50 53 55 58 59 62 63 65 67 68 69 70 73 77 78 79
9 29 33 34 35 37 38 40 41 42 43 47 48 51 53 55 56 58 59 62 63 69 70 72 73 75 79
10 25 27 28 29 30 31 32 36 38 41 42 44 45 47 48 50 53 54 55 56 61 62 66 67 70 72 73 78 79
11 21 25 27 30 32 34 35 36 38 39 41 49 50 51 53 61 62 63 65 66 67 68 69 73 77 78
12 22 33 34 39 40 45 47 50 54 59 60 61 66 67 69 70 73 74 76 77 78
13 21 23 28 30 32 35 37 39 40 47 51 58 67 79
14 24 32 35 37 43 44 46 48 49 59 68 78 79
15 21 35 39 40 45 55 56 62 63 65 66 67 71 73 74 77
16 28 33 34 39 40 41 43 46 48 53 76 77
17 21 24 25 26 28 36 44 50 53 59 63 68 69 74 75
18 31 36 39 54 58 63
19 26 51 53
20
